h = 5;
v = 5;

demand_per_h = [10, 8, 9, 12, 8];
demand_per_v = [9, 12, 10, 11, 9];

cost_per_house = [| 2, 3, 3, 2, 4 
                  | 1, 2, 2, 3, 5
                  | 2, 1, 5, 5, 5
                  | 2, 1, 1, 3, 2
                  | 5, 3, 4, 1, 2|];
                  
cost_per_permit = [| 2, 4, 2, 1, 2
                   | 2, 1, 2, 1, 1
                   | 1, 2, 1, 1, 3
                   | 3, 4, 5, 5, 4
                   | 1, 2, 1, 4, 4|];

m = 3;